p tdp 17 68
1 2
1 3
1 5
1 6
1 8
1 13
1 14
1 16
2 4
2 6
2 9
2 11
2 12
2 14
2 16
3 4
3 8
3 10
3 14
3 15
3 16
3 17
4 7
4 8
4 9
4 10
4 12
4 14
5 7
5 8
5 9
5 10
5 11
5 13
5 16
6 8
6 9
6 12
6 13
6 15
6 17
7 8
7 11
7 12
7 13
7 14
7 17
8 9
8 17
9 10
9 11
9 15
10 12
10 13
10 15
10 16
11 14
11 15
11 16
11 17
12 13
12 16
12 17
13 14
13 15
14 15
15 17
16 17
